* ENCODING=ISO-8859-1
NAME          CPLEX
ROWS
 N  obj1    
 G  c1      
 G  c2      
 G  c3      
 G  c4      
 G  c5      
 G  c6      
 G  c7      
 G  c8      
 G  c9      
 G  c10     
 G  c11     
 G  c12     
 G  c13     
 G  c14     
 G  c15     
 G  c16     
 G  c17     
 G  c18     
 G  c19     
 G  c20     
 G  c21     
 G  c22     
 G  c23     
 G  c24     
 G  c25     
COLUMNS
    MARK0000  'MARKER'                 'INTORG'
    x1        obj1                            1
    x1        c5                            253
    x1        c14                           390
    x2        obj1                            1
    x2        c4                            993
    x2        c9                            290
    x2        c16                           194
    x2        c19                           860
    x3        obj1                            1
    x3        c16                           836
    x4        obj1                            1
    x4        c6                            100
    x4        c13                           286
    x4        c16                           634
    x5        obj1                            1
    x5        c15                           879
    x6        obj1                            1
    x6        c9                            558
    x6        c15                           782
    x7        obj1                            1
    x7        c2                            588
    x7        c9                            712
    x7        c21                           298
    x7        c25                           977
    x8        obj1                            1
    x8        c2                            903
    x8        c24                           154
    x9        obj1                            1
    x9        c18                           599
    x10       obj1                            1
    x10       c11                           835
    x11       obj1                            1
    x11       c2                            614
    x11       c5                            340
    x11       c7                            382
    x11       c11                           251
    x12       obj1                            1
    x12       c5                            238
    x12       c12                           715
    x13       obj1                            1
    x13       c2                            341
    x13       c21                           475
    x14       obj1                            1
    x14       c19                           536
    x15       obj1                            1
    x15       c10                           552
    x15       c14                           577
    x16       obj1                            1
    x16       c6                            119
    x16       c8                            599
    x16       c9                            789
    x16       c15                           212
    x16       c21                           920
    x17       obj1                            1
    x17       c15                           727
    x18       obj1                            1
    x18       c17                           724
    x18       c20                           810
    x18       c25                           498
    x19       obj1                            1
    x19       c6                            772
    x19       c10                           688
    x20       obj1                            1
    x20       c3                            534
    x20       c7                            433
    x20       c24                           106
    x21       obj1                            1
    x21       c19                           162
    x22       obj1                            1
    x22       c2                            689
    x22       c13                           428
    x23       obj1                            1
    x23       c6                            424
    x23       c11                           733
    x23       c14                           772
    x23       c22                           716
    x24       obj1                            1
    x24       c1                            498
    x24       c3                            140
    x24       c15                           602
    x24       c16                           593
    x24       c18                           447
    x24       c23                           114
    x25       obj1                            1
    x25       c10                           139
    x25       c19                           724
    x26       obj1                            1
    x26       c3                            421
    x26       c4                            436
    x26       c5                            203
    x26       c9                            549
    x26       c10                           206
    x26       c14                           877
    x26       c18                           794
    x26       c23                           944
    x27       obj1                            1
    x27       c2                            165
    x27       c15                           785
    x28       obj1                            1
    x29       obj1                            1
    x29       c5                            809
    x29       c17                           622
    x29       c24                           516
    x30       obj1                            1
    x30       c14                           781
    x31       obj1                            1
    x31       c11                           174
    x31       c12                           765
    x32       obj1                            1
    x32       c23                           263
    x33       obj1                            1
    x33       c4                            150
    x34       obj1                            1
    x34       c3                            597
    x34       c14                           701
    x34       c24                           962
    x35       obj1                            1
    x35       c5                            369
    x35       c6                            571
    x35       c9                            334
    x35       c18                           853
    x36       obj1                            1
    x36       c4                            222
    x36       c5                            345
    x37       obj1                            1
    x37       c22                           401
    x38       obj1                            1
    x38       c1                            538
    x38       c3                            223
    x38       c12                           935
    x38       c18                           913
    x38       c20                           803
    x39       obj1                            1
    x39       c13                           761
    x39       c17                           524
    x40       obj1                            1
    x40       c7                            452
    x40       c8                            761
    x40       c20                           751
    x41       obj1                            1
    x41       c7                            555
    x41       c16                           309
    x41       c19                           468
    x41       c21                           466
    x41       c22                           709
    x42       obj1                            1
    x42       c9                            725
    x42       c13                           459
    x43       obj1                            1
    x43       c8                            501
    x43       c12                           156
    x43       c13                           376
    x44       obj1                            1
    x44       c16                           591
    x44       c18                           312
    x44       c22                           678
    x44       c23                           846
    x45       obj1                            1
    x45       c16                           126
    x45       c20                           373
    x46       obj1                            1
    x46       c13                           360
    x46       c25                           102
    x47       obj1                            1
    x47       c4                            202
    x47       c14                           953
    x48       obj1                            1
    x48       c1                            890
    x49       obj1                            1
    x49       c6                            691
    x49       c15                           613
    x49       c21                           429
    x50       obj1                            1
    x50       c1                            316
    x50       c3                            110
    x50       c7                            916
    x50       c11                           701
    MARK0001  'MARKER'                 'INTEND'
RHS
    rhs       c1                           1121
    rhs       c2                           1650
    rhs       c3                           1013
    rhs       c4                           1002
    rhs       c5                           1279
    rhs       c6                           1339
    rhs       c7                           1369
    rhs       c8                            931
    rhs       c9                           1979
    rhs       c10                           793
    rhs       c11                          1347
    rhs       c12                          1286
    rhs       c13                          1335
    rhs       c14                          2526
    rhs       c15                          2300
    rhs       c16                          1642
    rhs       c17                           935
    rhs       c18                          1959
    rhs       c19                          1375
    rhs       c20                          1369
    rhs       c21                          1294
    rhs       c22                          1252
    rhs       c23                          1084
    rhs       c24                           869
    rhs       c25                           789
BOUNDS
 LI bnd       x1        0
 LI bnd       x2        0
 LI bnd       x3        0
 LI bnd       x4        0
 LI bnd       x5        0
 LI bnd       x6        0
 LI bnd       x7        0
 LI bnd       x8        0
 LI bnd       x9        0
 LI bnd       x10       0
 LI bnd       x11       0
 LI bnd       x12       0
 LI bnd       x13       0
 LI bnd       x14       0
 LI bnd       x15       0
 LI bnd       x16       0
 LI bnd       x17       0
 LI bnd       x18       0
 LI bnd       x19       0
 LI bnd       x20       0
 LI bnd       x21       0
 LI bnd       x22       0
 LI bnd       x23       0
 LI bnd       x24       0
 LI bnd       x25       0
 LI bnd       x26       0
 LI bnd       x27       0
 LI bnd       x28       0
 LI bnd       x29       0
 LI bnd       x30       0
 LI bnd       x31       0
 LI bnd       x32       0
 LI bnd       x33       0
 LI bnd       x34       0
 LI bnd       x35       0
 LI bnd       x36       0
 LI bnd       x37       0
 LI bnd       x38       0
 LI bnd       x39       0
 LI bnd       x40       0
 LI bnd       x41       0
 LI bnd       x42       0
 LI bnd       x43       0
 LI bnd       x44       0
 LI bnd       x45       0
 LI bnd       x46       0
 LI bnd       x47       0
 LI bnd       x48       0
 LI bnd       x49       0
 LI bnd       x50       0
ENDATA
